NAME : gr96.tsp
COMMENT : Optimal tour for gr96.tsp
TYPE : TOUR
DIMENSION : 96
Total Length: 572.7012372926202
TOUR_SECTION
1
30
31
32
36
37
38
39
40
41
42
43
49
50
52
53
55
51
79
80
69
57
56
58
59
60
61
62
63
64
66
67
68
72
71
70
82
81
83
91
90
89
87
86
85
84
74
73
75
76
77
78
88
92
93
95
94
96
65
27
28
26
22
21
19
18
20
17
16
15
14
13
12
10
9
7
8
6
5
4
11
23
24
25
54
48
47
46
45
44
33
34
35
29
2
3
-1
EOF
